max : 310x00 + 380x01 + 350x02 + 285x03 + 310x10 + 380x11 + 350x12 + 285x13 + 310x20 + 380x21 + 350x22 + 285x23;

x00 + x01 + x02 + x03 <= 10;
x10 + x11 + x12 + x13 <= 16;
x20 + x21 + x22 + x23 <= 8;

480x00 + 650x01 + 580x02 + 390x03 <= 6800;
480x10 + 650x11 + 580x12 + 390x13 <= 8700;
480x20 + 650x21 + 580x22 + 390x23 <= 5300;

x00 + x10 + x20 <= 18;
x01 + x11 + x21 <= 15;
x02 + x12 + x22 <= 23;
x03 + x13 + x23 <= 12;

10a = x00 + x01 + x02 + x03;
16a = x10 + x11 + x12 + x13;
8a = x20 + x21 + x22 + x23;

x00 >= 0;
x01 >= 0;
x02 >= 0;
x03 >= 0;
x10 >= 0;
x11 >= 0;
x12 >= 0;
x13 >= 0;
x20 >= 0;
x21 >= 0;
x22 >= 0;
x23 >= 0;

